2
5 10
1 1 1 5 5
1 2 3 7 8
50 200
23 45 67 89 12 34 56 78 90 21 43 65 87 19 32 54 76 98 20 42 64 86 18 31 53 75 97 29 41 63 85 17 30 52 74 96 28 40 62 84 16 29 51 73 95 27 39 61 83 15
10 20 30 40 50 15 25 35 45 10 20 30 40 50 15 25 35 45 10 20 30 40 50 15 25 35 45 10 20 30 40 50 15 25 35 45 10 20 30 40 50 15 25 35 45 10 20 30 40 50
